NAME: testt.tsp
TYPE: TSP
COMMENT: User-generated TSP file
DIMENSION: 30
EDGE_WEIGHT_TYPE: EUC_2D
NODE_COORD_SECTION
1 38.0 49.0
2 87.0 16.0
3 81.0 33.0
4 28.0 1.0
5 8.0 94.0
6 88.0 38.0
7 67.0 24.0
8 76.0 12.0
9 3.0 28.0
10 24.0 89.0
11 49.0 77.0
12 79.0 90.0
13 68.0 55.0
14 37.0 87.0
15 23.0 33.0
16 46.0 97.0
17 100.0 52.0
18 53.0 23.0
19 44.0 36.0
20 99.0 62.0
21 45.0 58.0
22 49.0 1.0
23 65.0 74.0
24 83.0 22.0
25 59.0 87.0
26 25.0 22.0
27 37.0 44.0
28 50.0 3.0
29 87.0 89.0
30 93.0 51.0
EOF

